p cnf 7230 17
-3774 -3780 -3782 -4858 5066 0
3774 -5067 0
3780 -5067 0
-5070 -5071 0
3782 -5067 0
5068 5069 0
4494 -5069 0
-4494 -5068 0
-5066 5067 0
5064 5065 0
4492 -5065 0
-4492 -5064 0
4858 -5067 0
-4496 5071 0
-5062 5063 0
5062 -5063 0
4496 -5071 0
